
Gurobi 11.0.2 (win64) logging started Wed Aug  7 21:07:28 2024

Set parameter LogFile to value "D:\Documenti\Scuola\Laurea magistrale unibs\laurea-unibs-mkfsp\output\2024-08-07T17_25_17.381079\logs\instance11_bucket2.log"
Set parameter TimeLimit to value 100
Set parameter MIPGap to value 0
Gurobi Optimizer version 11.0.2 build v11.0.2rc0 (win64 - Windows 10.0 (19045.2))

CPU model: Intel(R) Core(TM) i5-4670 CPU @ 3.40GHz, instruction set [SSE2|AVX|AVX2]
Thread count: 4 physical cores, 4 logical processors, using up to 4 threads

Optimize a model with 5523 rows, 24476 columns and 683215 nonzeros
Model fingerprint: 0x100d55b1
Variable types: 0 continuous, 24476 integer (24193 binary)
Coefficient statistics:
  Matrix range     [1e+00, 9e+03]
  Objective range  [6e+02, 9e+03]
  Bounds range     [1e+00, 1e+00]
  RHS range        [1e+00, 1e+06]
Presolve time: 1.45s
Presolved: 5523 rows, 24476 columns, 683215 nonzeros
Variable types: 0 continuous, 24476 integer (24193 binary)
Deterministic concurrent LP optimizer: primal simplex, dual simplex, and barrier
Showing barrier log only...

Root barrier log...

Ordering time: 0.08s

Barrier statistics:
 AA' NZ     : 7.337e+05
 Factor NZ  : 8.300e+05 (roughly 17 MB of memory)
 Factor Ops : 2.757e+08 (less than 1 second per iteration)
 Threads    : 1

                  Objective                Residual
Iter       Primal          Dual         Primal    Dual     Compl     Time
   0   1.02684515e+08  1.11074754e+08  5.15e+06 0.00e+00  7.18e+05     2s
   1   2.01405354e+07  1.14364688e+08  8.81e+05 4.83e-13  1.32e+05     2s
   2   1.61426776e+06  1.05508875e+08  9.37e+03 5.68e-13  3.69e+03     3s
   3   1.42861628e+06  4.01482973e+07  2.03e+02 8.53e-13  8.99e+02     3s
   4   1.43413298e+06  5.05737129e+06  1.27e-13 3.69e-13  8.26e+01     3s
   5   1.48955837e+06  1.63270260e+06  4.88e-14 3.20e-14  3.26e+00     3s
   6   1.49684196e+06  1.51553189e+06  1.84e-13 3.69e-14  4.26e-01     3s
   7   1.49873080e+06  1.50161956e+06  5.01e-13 3.55e-14  6.58e-02     3s
   8   1.49897513e+06  1.49932416e+06  1.13e-12 3.91e-14  7.95e-03     3s
   9   1.49903670e+06  1.49909780e+06  3.63e-12 3.47e-14  1.39e-03     3s
  10   1.49904492e+06  1.49905064e+06  8.28e-12 4.71e-14  1.30e-04     3s
  11   1.49904653e+06  1.49904714e+06  2.28e-12 4.16e-14  1.38e-05     4s
  12   1.49904664e+06  1.49904673e+06  4.33e-13 4.08e-14  1.93e-06     4s
  13   1.49904664e+06  1.49904665e+06  7.34e-10 3.24e-14  4.98e-08     4s
  14   1.49904664e+06  1.49904664e+06  1.84e-09 4.71e-14  1.04e-11     4s

Barrier solved model in 14 iterations and 3.97 seconds (2.94 work units)
Optimal objective 1.49904664e+06

  Building initial crossover basis                                 5s

Root crossover log...

    1831 DPushes remaining with DInf 0.0000000e+00                 7s
       0 DPushes remaining with DInf 0.0000000e+00                 7s

      67 PPushes remaining with PInf 1.2004358e-05                 7s
       0 PPushes remaining with PInf 0.0000000e+00                 7s

  Push phase complete: Pinf 0.0000000e+00, Dinf 1.8952662e-11      7s


Root simplex log...

Iteration    Objective       Primal Inf.    Dual Inf.      Time
    1900    1.4990466e+06   0.000000e+00   0.000000e+00      7s
Concurrent spin time: 0.00s

Solved with barrier
    1900    1.4990466e+06   0.000000e+00   0.000000e+00      7s

Root relaxation: objective 1.499047e+06, 1900 iterations, 5.36 seconds (3.40 work units)
Total elapsed time = 25.39s (DegenMoves)
Total elapsed time = 35.13s (DegenMoves)
Total elapsed time = 43.77s (DegenMoves)
Total elapsed time = 51.65s (DegenMoves)

    Nodes    |    Current Node    |     Objective Bounds      |     Work
 Expl Unexpl |  Obj  Depth IntInf | Incumbent    BestBd   Gap | It/Node Time

     0     0 1499046.64    0 2142          - 1499046.64      -     -   67s
     0     0 1499038.53    0 3506          - 1499038.53      -     -   92s
     0     0          -    0               - 1499038.53      -     -  100s

Cutting planes:
  Gomory: 2
  Cover: 1034
  Clique: 104
  MIR: 398
  StrongCG: 12

Explored 1 nodes (64262 simplex iterations) in 100.04 seconds (109.01 work units)
Thread count was 4 (of 4 available processors)

Solution count 0

Time limit reached
Best objective -, best bound 1.499038529044e+06, gap -
